; benchmark generated from python API
(set-info :status unknown)
(declare-fun x_epoch () Int)
(declare-fun x_shift_period_816514_epoch () Int)
(declare-fun x_year () Int)
(declare-fun x_month () Int)
(declare-fun x_day () Int)
(declare-fun x_shift_period_816514_year () Int)
(declare-fun x_shift_period_816514_month () Int)
(declare-fun x_shift_period_816514_day () Int)
(declare-fun x_shift_period_823959_epoch () Int)
(declare-fun x_shift_period_823959_year () Int)
(declare-fun x_shift_period_823959_month () Int)
(declare-fun x_shift_period_823959_day () Int)
(assert
 (>= x_epoch (- 36584)))
(assert
 (<= x_epoch 36829))
(assert
 (>= x_epoch 8341))
(assert
 (>= x_shift_period_816514_epoch (- 36584)))
(assert
 (<= x_shift_period_816514_epoch 36829))
(assert
 (let (($x3062 (<= x_year 2100)))
 (let (($x2056 (>= x_year 1900)))
 (let (($x2089 (= x_month 11)))
 (let (($x4720 (= x_month 9)))
 (let (($x4726 (= x_month 6)))
 (let (($x4696 (= x_month 4)))
 (let ((?x4717 (ite (or $x4696 $x4726 $x4720 $x2089) 30 31)))
 (let (($x4721 (= (mod x_year 4) 0)))
 (let (($x461 (= (mod x_year 100) 0)))
 (let (($x701 (= (mod x_year 400) 0)))
 (let (($x4716 (ite $x701 true (ite $x461 false $x4721))))
 (let (($x107 (= x_month 2)))
 (let ((?x196 (ite $x107 (ite $x4716 29 28) ?x4717)))
 (let (($x496 (>= x_day 1)))
 (let (($x321 (<= x_month 12)))
 (let (($x471 (>= x_month 1)))
 (and $x471 $x321 $x496 (<= x_day ?x196) $x2056 $x3062))))))))))))))))))
(assert
 (let (($x29 (or (and (= (mod 2000 4) 0) (and (distinct (mod 2000 100) 0) true)) (= (mod 2000 400) 0))))
 (let ((?x36 (ite (= 3 2) (ite $x29 31 31) (ite (= 3 1) (ite $x29 0 0) 0))))
 (let ((?x40 (ite $x29 60 59)))
 (let ((?x41 (ite (= 3 3) ?x40 ?x36)))
 (let ((?x46 (ite (= 3 4) (ite $x29 91 90) ?x41)))
 (let ((?x52 (ite (= 3 5) (ite $x29 121 120) ?x46)))
 (let ((?x58 (ite (= 3 6) (ite $x29 152 151) ?x52)))
 (let ((?x64 (ite (= 3 7) (ite $x29 182 181) ?x58)))
 (let ((?x70 (ite (= 3 8) (ite $x29 213 212) ?x64)))
 (let ((?x76 (ite (= 3 9) (ite $x29 244 243) ?x70)))
 (let ((?x82 (ite (= 3 10) (ite $x29 274 273) ?x76)))
 (let ((?x88 (ite (= 3 11) (ite $x29 305 304) ?x82)))
 (let ((?x16 (- (+ (* 365 (- 2000 1)) (div (- 2000 1) 4)) (div (- 2000 1) 100))))
 (let ((?x95 (+ (+ ?x16 (div (- 2000 1) 400)) (ite (= 3 12) (ite $x29 335 334) ?x88))))
 (let ((?x97 (+ ?x95 (- 1 1))))
 (let (($x4721 (= (mod x_year 4) 0)))
 (let (($x461 (= (mod x_year 100) 0)))
 (let (($x701 (= (mod x_year 400) 0)))
 (let (($x4716 (ite $x701 true (ite $x461 false $x4721))))
 (let (($x1147 (= 2 x_month)))
 (let ((?x432 (ite $x1147 (ite $x4716 31 31) (ite (= 1 x_month) (ite $x4716 0 0) 0))))
 (let (($x446 (= 3 x_month)))
 (let (($x934 (= 4 x_month)))
 (let ((?x4453 (ite $x934 (ite $x4716 91 90) (ite $x446 (ite $x4716 60 59) ?x432))))
 (let (($x3526 (= 5 x_month)))
 (let (($x3114 (= 6 x_month)))
 (let ((?x4161 (ite $x3114 (ite $x4716 152 151) (ite $x3526 (ite $x4716 121 120) ?x4453))))
 (let (($x3586 (= 7 x_month)))
 (let (($x3238 (= 8 x_month)))
 (let ((?x3940 (ite $x3238 (ite $x4716 213 212) (ite $x3586 (ite $x4716 182 181) ?x4161))))
 (let (($x3872 (= 9 x_month)))
 (let (($x4207 (= 10 x_month)))
 (let ((?x2066 (ite $x4207 (ite $x4716 274 273) (ite $x3872 (ite $x4716 244 243) ?x3940))))
 (let (($x2669 (= 11 x_month)))
 (let (($x3958 (= 12 x_month)))
 (let ((?x1475 (ite $x3958 (ite $x4716 335 334) (ite $x2669 (ite $x4716 305 304) ?x2066))))
 (let ((?x3270 (- (+ (* 365 (- x_year 1)) (div (- x_year 1) 4)) (div (- x_year 1) 100))))
 (let ((?x2155 (+ (+ (+ ?x3270 (div (- x_year 1) 400)) ?x1475) (- x_day 1))))
 (= x_epoch (- ?x2155 ?x97)))))))))))))))))))))))))))))))))))))))))
(assert
 (let (($x3837 (<= x_shift_period_816514_year 2100)))
 (let (($x300 (>= x_shift_period_816514_year 1900)))
 (let (($x318 (= x_shift_period_816514_month 11)))
 (let (($x115 (= x_shift_period_816514_month 9)))
 (let (($x726 (= x_shift_period_816514_month 6)))
 (let (($x2362 (= x_shift_period_816514_month 4)))
 (let ((?x422 (ite (or $x2362 $x726 $x115 $x318) 30 31)))
 (let (($x2094 (= (mod x_shift_period_816514_year 4) 0)))
 (let (($x1128 (= (mod x_shift_period_816514_year 100) 0)))
 (let (($x1519 (= (mod x_shift_period_816514_year 400) 0)))
 (let (($x1334 (ite $x1519 true (ite $x1128 false $x2094))))
 (let (($x748 (= x_shift_period_816514_month 2)))
 (let (($x1552 (>= x_shift_period_816514_day 1)))
 (let (($x969 (<= x_shift_period_816514_month 12)))
 (let (($x2993 (>= x_shift_period_816514_month 1)))
 (and $x2993 $x969 $x1552 (<= x_shift_period_816514_day (ite $x748 (ite $x1334 29 28) ?x422)) $x300 $x3837)))))))))))))))))
(assert
 (let (($x29 (or (and (= (mod 2000 4) 0) (and (distinct (mod 2000 100) 0) true)) (= (mod 2000 400) 0))))
 (let ((?x36 (ite (= 3 2) (ite $x29 31 31) (ite (= 3 1) (ite $x29 0 0) 0))))
 (let ((?x40 (ite $x29 60 59)))
 (let ((?x41 (ite (= 3 3) ?x40 ?x36)))
 (let ((?x46 (ite (= 3 4) (ite $x29 91 90) ?x41)))
 (let ((?x52 (ite (= 3 5) (ite $x29 121 120) ?x46)))
 (let ((?x58 (ite (= 3 6) (ite $x29 152 151) ?x52)))
 (let ((?x64 (ite (= 3 7) (ite $x29 182 181) ?x58)))
 (let ((?x70 (ite (= 3 8) (ite $x29 213 212) ?x64)))
 (let ((?x76 (ite (= 3 9) (ite $x29 244 243) ?x70)))
 (let ((?x82 (ite (= 3 10) (ite $x29 274 273) ?x76)))
 (let ((?x88 (ite (= 3 11) (ite $x29 305 304) ?x82)))
 (let ((?x16 (- (+ (* 365 (- 2000 1)) (div (- 2000 1) 4)) (div (- 2000 1) 100))))
 (let ((?x95 (+ (+ ?x16 (div (- 2000 1) 400)) (ite (= 3 12) (ite $x29 335 334) ?x88))))
 (let ((?x97 (+ ?x95 (- 1 1))))
 (let (($x2094 (= (mod x_shift_period_816514_year 4) 0)))
 (let (($x1128 (= (mod x_shift_period_816514_year 100) 0)))
 (let (($x1519 (= (mod x_shift_period_816514_year 400) 0)))
 (let (($x1334 (ite $x1519 true (ite $x1128 false $x2094))))
 (let ((?x1055 (ite (= 1 x_shift_period_816514_month) (ite $x1334 0 0) 0)))
 (let ((?x1900 (ite (= 3 x_shift_period_816514_month) (ite $x1334 60 59) (ite (= 2 x_shift_period_816514_month) (ite $x1334 31 31) ?x1055))))
 (let ((?x3924 (ite (= 5 x_shift_period_816514_month) (ite $x1334 121 120) (ite (= 4 x_shift_period_816514_month) (ite $x1334 91 90) ?x1900))))
 (let ((?x783 (ite (= 7 x_shift_period_816514_month) (ite $x1334 182 181) (ite (= 6 x_shift_period_816514_month) (ite $x1334 152 151) ?x3924))))
 (let ((?x3437 (ite (= 9 x_shift_period_816514_month) (ite $x1334 244 243) (ite (= 8 x_shift_period_816514_month) (ite $x1334 213 212) ?x783))))
 (let ((?x228 (ite (= 11 x_shift_period_816514_month) (ite $x1334 305 304) (ite (= 10 x_shift_period_816514_month) (ite $x1334 274 273) ?x3437))))
 (let ((?x3747 (+ (* 365 (- x_shift_period_816514_year 1)) (div (- x_shift_period_816514_year 1) 4))))
 (let ((?x2854 (+ (- ?x3747 (div (- x_shift_period_816514_year 1) 100)) (div (- x_shift_period_816514_year 1) 400))))
 (let ((?x2446 (+ ?x2854 (ite (= 12 x_shift_period_816514_month) (ite $x1334 335 334) ?x228))))
 (= x_shift_period_816514_epoch (- (+ ?x2446 (- x_shift_period_816514_day 1)) ?x97)))))))))))))))))))))))))))))))
(assert
 (let ((?x3347 (+ (+ (* 12 x_year) (- x_month 1)) 1)))
 (let ((?x146 (div ?x3347 12)))
 (= x_shift_period_816514_year ?x146))))
(assert
 (let ((?x2874 (+ (mod (+ (+ (* 12 x_year) (- x_month 1)) 1) 12) 1)))
 (= x_shift_period_816514_month ?x2874)))
(assert
 (let ((?x2874 (+ (mod (+ (+ (* 12 x_year) (- x_month 1)) 1) 12) 1)))
 (let ((?x770 (ite (or (= ?x2874 4) (= ?x2874 6) (= ?x2874 9) (= ?x2874 11)) 30 31)))
 (let ((?x3347 (+ (+ (* 12 x_year) (- x_month 1)) 1)))
 (let ((?x146 (div ?x3347 12)))
 (let (($x1324 (ite (= (mod ?x146 400) 0) true (ite (= (mod ?x146 100) 0) false (= (mod ?x146 4) 0)))))
 (let ((?x1630 (ite (= ?x2874 2) (ite $x1324 29 28) ?x770)))
 (let ((?x1631 (ite (<= x_day ?x1630) x_day ?x1630)))
 (let (($x2089 (= x_month 11)))
 (let (($x4720 (= x_month 9)))
 (let (($x4726 (= x_month 6)))
 (let (($x4696 (= x_month 4)))
 (let ((?x4717 (ite (or $x4696 $x4726 $x4720 $x2089) 30 31)))
 (let (($x4721 (= (mod x_year 4) 0)))
 (let (($x461 (= (mod x_year 100) 0)))
 (let (($x701 (= (mod x_year 400) 0)))
 (let (($x4716 (ite $x701 true (ite $x461 false $x4721))))
 (let (($x107 (= x_month 2)))
 (let ((?x196 (ite $x107 (ite $x4716 29 28) ?x4717)))
 (let ((?x2883 (ite false (ite (= x_day ?x196) ?x1630 ?x1631) ?x1631)))
 (= x_shift_period_816514_day ?x2883)))))))))))))))))))))
(assert
 (>= x_shift_period_823959_epoch (- 36584)))
(assert
 (<= x_shift_period_823959_epoch 36829))
(assert
 (let (($x2621 (<= x_shift_period_823959_year 2100)))
 (let (($x2381 (>= x_shift_period_823959_year 1900)))
 (let (($x1353 (= x_shift_period_823959_month 11)))
 (let (($x387 (= x_shift_period_823959_month 9)))
 (let (($x2823 (= x_shift_period_823959_month 6)))
 (let (($x2251 (= x_shift_period_823959_month 4)))
 (let ((?x1212 (ite (or $x2251 $x2823 $x387 $x1353) 30 31)))
 (let (($x1732 (= (mod x_shift_period_823959_year 4) 0)))
 (let (($x2108 (= (mod x_shift_period_823959_year 100) 0)))
 (let (($x273 (= (mod x_shift_period_823959_year 400) 0)))
 (let (($x3312 (ite $x273 true (ite $x2108 false $x1732))))
 (let (($x3351 (= x_shift_period_823959_month 2)))
 (let (($x3007 (>= x_shift_period_823959_day 1)))
 (let (($x2419 (<= x_shift_period_823959_month 12)))
 (let (($x2436 (>= x_shift_period_823959_month 1)))
 (and $x2436 $x2419 $x3007 (<= x_shift_period_823959_day (ite $x3351 (ite $x3312 29 28) ?x1212)) $x2381 $x2621)))))))))))))))))
(assert
 (let (($x29 (or (and (= (mod 2000 4) 0) (and (distinct (mod 2000 100) 0) true)) (= (mod 2000 400) 0))))
 (let ((?x36 (ite (= 3 2) (ite $x29 31 31) (ite (= 3 1) (ite $x29 0 0) 0))))
 (let ((?x40 (ite $x29 60 59)))
 (let ((?x41 (ite (= 3 3) ?x40 ?x36)))
 (let ((?x46 (ite (= 3 4) (ite $x29 91 90) ?x41)))
 (let ((?x52 (ite (= 3 5) (ite $x29 121 120) ?x46)))
 (let ((?x58 (ite (= 3 6) (ite $x29 152 151) ?x52)))
 (let ((?x64 (ite (= 3 7) (ite $x29 182 181) ?x58)))
 (let ((?x70 (ite (= 3 8) (ite $x29 213 212) ?x64)))
 (let ((?x76 (ite (= 3 9) (ite $x29 244 243) ?x70)))
 (let ((?x82 (ite (= 3 10) (ite $x29 274 273) ?x76)))
 (let ((?x88 (ite (= 3 11) (ite $x29 305 304) ?x82)))
 (let ((?x16 (- (+ (* 365 (- 2000 1)) (div (- 2000 1) 4)) (div (- 2000 1) 100))))
 (let ((?x95 (+ (+ ?x16 (div (- 2000 1) 400)) (ite (= 3 12) (ite $x29 335 334) ?x88))))
 (let ((?x97 (+ ?x95 (- 1 1))))
 (let (($x1732 (= (mod x_shift_period_823959_year 4) 0)))
 (let (($x2108 (= (mod x_shift_period_823959_year 100) 0)))
 (let (($x273 (= (mod x_shift_period_823959_year 400) 0)))
 (let (($x3312 (ite $x273 true (ite $x2108 false $x1732))))
 (let ((?x1211 (ite (= 1 x_shift_period_823959_month) (ite $x3312 0 0) 0)))
 (let ((?x713 (ite (= 3 x_shift_period_823959_month) (ite $x3312 60 59) (ite (= 2 x_shift_period_823959_month) (ite $x3312 31 31) ?x1211))))
 (let ((?x722 (ite (= 5 x_shift_period_823959_month) (ite $x3312 121 120) (ite (= 4 x_shift_period_823959_month) (ite $x3312 91 90) ?x713))))
 (let ((?x1930 (ite (= 7 x_shift_period_823959_month) (ite $x3312 182 181) (ite (= 6 x_shift_period_823959_month) (ite $x3312 152 151) ?x722))))
 (let ((?x860 (ite (= 9 x_shift_period_823959_month) (ite $x3312 244 243) (ite (= 8 x_shift_period_823959_month) (ite $x3312 213 212) ?x1930))))
 (let ((?x1160 (ite (= 11 x_shift_period_823959_month) (ite $x3312 305 304) (ite (= 10 x_shift_period_823959_month) (ite $x3312 274 273) ?x860))))
 (let ((?x4098 (+ (* 365 (- x_shift_period_823959_year 1)) (div (- x_shift_period_823959_year 1) 4))))
 (let ((?x2132 (+ (- ?x4098 (div (- x_shift_period_823959_year 1) 100)) (div (- x_shift_period_823959_year 1) 400))))
 (let ((?x1339 (+ ?x2132 (ite (= 12 x_shift_period_823959_month) (ite $x3312 335 334) ?x1160))))
 (= x_shift_period_823959_epoch (- (+ ?x1339 (- x_shift_period_823959_day 1)) ?x97)))))))))))))))))))))))))))))))
(assert
 (= x_shift_period_823959_epoch (+ x_epoch 31)))
(assert
 (> x_shift_period_816514_epoch x_shift_period_823959_epoch))
(check-sat)
